\Generated by Cardinal Operations

Maximize
   15.15 x_1 + 30.3 x_2 + 45.45 x_3 + 60.6 x_4 + 75.75 x_5 + 1200.32 x_6 
   + 1500.4 x_7 + 300.08 x_8 + 600.16 x_9 + 900.24 x_10 + 121.98 x_11 
   + 162.64 x_12 + 203.3 x_13 + 40.66 x_14 + 81.31999999999999 x_15 
   + 10.46 x_16 + 15.69 x_17 + 20.92 x_18 + 26.15 x_19 + 5.23 x_20 
   + 1200.34 x_21 + 1800.51 x_22 + 2400.68 x_23 + 3000.85 x_24 
   + 600.17 x_25 + 11.73 x_26 + 23.46 x_27 + 35.19 x_28 + 46.92 x_29 
   + 58.65 x_30 + 1050 x_31 + 2100 x_32 + 3150 x_33 + 4200 x_34 + 5250 x_35 
   + 107.52 x_36 + 143.36 x_37 + 179.2 x_38 + 35.84 x_39 
   + 71.68000000000001 x_40 
Subject To
 inventory_constraint: x_1 <= 9920
 x_2 <= 20160
 x_3 <= 30000
 x_4 <= 38360
 x_5 <= 51450
 x_6 <= 273960
 x_7 <= 347000
 x_8 <= 68690
 x_9 <= 139050
 x_10 <= 207280
 x_11 <= 92220
 x_12 <= 120480
 x_13 <= 152750
 x_14 <= 29860
 x_15 <= 59700
 x_16 <= 58180
 x_17 <= 89760
 x_18 <= 115360
 x_19 <= 149450
 x_20 <= 30060
 x_21 <= 40900
 x_22 <= 60300
 x_23 <= 80880
 x_24 <= 100650
 x_25 <= 19440
 x_26 <= 10240
 x_27 <= 19680
 x_28 <= 32310
 x_29 <= 36880
 x_30 <= 49600
 x_31 <= 9850
 x_32 <= 20000
 x_33 <= 30390
 x_34 <= 40040
 x_35 <= 50050
 x_36 <= 62460
 x_37 <= 83040
 x_38 <= 98550
 x_39 <= 20000
 x_40 <= 39160
 demand_constraint: x_1 <= 1980
 x_2 <= 3024
 x_3 <= 4536
 x_4 <= 5601
 x_5 <= 7567
 x_6 <= 39904
 x_7 <= 50929
 x_8 <= 13719
 x_9 <= 20857
 x_10 <= 31483
 x_11 <= 13988
 x_12 <= 17541
 x_13 <= 22373
 x_14 <= 5972
 x_15 <= 8951
 x_16 <= 8727
 x_17 <= 13616
 x_18 <= 16819
 x_19 <= 21915
 x_20 <= 6010
 x_21 <= 6135
 x_22 <= 9158
 x_23 <= 11762
 x_24 <= 14746
 x_25 <= 3888
 x_26 <= 2048
 x_27 <= 2952
 x_28 <= 4941
 x_29 <= 5382
 x_30 <= 7275
 x_31 <= 1970
 x_32 <= 3000
 x_33 <= 4619
 x_34 <= 5842
 x_35 <= 7317
 x_36 <= 9507
 x_37 <= 12079
 x_38 <= 14454
 x_39 <= 4000
 x_40 <= 5874
Generals
 x_1  x_2  x_3  x_4  x_5  x_6  x_7  x_8  x_9  x_10  x_11  x_12  x_13  x_14  
 x_15  x_16  x_17  x_18  x_19  x_20  x_21  x_22  x_23  x_24  x_25  x_26  
 x_27  x_28  x_29  x_30  x_31  x_32  x_33  x_34  x_35  x_36  x_37  x_38  
 x_39  x_40  
END

